n,Lilliefors,CramerVonMises,AndersonDarling,ShapiroFrancia
10,0.275,0.286,0.309,0.333
30,0.581,0.663,0.678,0.725
60,0.818,0.903,0.896,0.925
100,0.965,0.976,0.985,0.992
150,0.999,0.998,0.998,0.999
300,1,1,1,1
500,1,1,1,1
